INCAR created by Atomic Simulation Environment
 ENCUT = 300.000000
 SIGMA = 0.200000
 EDIFF = 1.00e-06
 ICHARG = 2
 ISMEAR = 0
 NELM = 100
 NSW = 0
 LCHARG = .FALSE.
 LWAVE = .FALSE.
