Pt
 1.0000000000000000
     3.9431503618848782    0.0000000000000000    0.0000000000000002
     0.0000000000000006    3.9431503618848782    0.0000000000000002
     0.0000000000000000    0.0000000000000000    3.9431503618848782
 Pt 
   4
Cartesian
  0.0000000000000000  0.0000000000000000  0.0000000000000000
  0.0000000000000003  1.9715751809424391  1.9715751809424391
  1.9715751809424391  0.0000000000000000  1.9715751809424391
  1.9715751809424393  1.9715751809424391  0.0000000000000002
