ndtset 2
jdtset 1 2

#DS1##############################################################################
#getden_filepath "dfthub_DEN"

# Basics
acell  5.96 20.0 20.0 angstrom
rprim  1 0 0  0 1 0  0 0 1

ntypat 1
znucl  3
natom 1
typat 1
xcart 0.0 0.0 0.0
pp_dirpath "$ABI_HOME/JTH-LDA-atomicdata-1.1/ATOMICDATA/"
pseudos "Li.LDA_PW-JTH.xml"

nsppol 1 # Number of SPin POLarization
#spinat 0.0 0.0 1.0 

nsym   1 # Number fo SYMmetry operations (1: no sym; only indentity)
nstep  50 # SCF steps
ecut   20.0 # Maximal kinetic energy cut-off, in Hartree
toldfe 1.0d-6  # SCF convergence
tolwfr 1.0d-16 # SCF convergence
istwfk *1
occopt 7 # OCCupation OPTion (7: Gaussian)
tsmear 1000 K # Temperature of SMEARing

nband   8 # Number of BANDs
kptopt  3 # KPoinTs OPTion (3: rely on ngkpt, nshiftk and shiftk; do not consider any sym)
ngkpt   8 1 1 # K - PoinTs grid : Real space LATTice
nshiftk 1 # No shift
shiftk  0.0 0.0 0.0

# GS
nspinor 1 # Number of SPINORial components of the wavefunctions

# PAW
pawecutdg 60.0 # PAW - Energy CUToff for the Double Grid
pawprtvol 3

w90prtunk2 1 # Prints UNK files (for plotting the Wannier functions)

#DS2##############################################################################

# Basics
getden2  1

nstep2   0
tolwfr2  1.0d-10 # dummy here
getwfk2  1
istwfk2  *1 # Controls the form of the wavefunctions

iscf2   -2
nband2  2
kptopt2 3 # Option for the automatic generation of k points

prtwant2   2 # Call to Wannier90
