Pt
 1.0000000000000000
     2.5272760000000001    0.0000000000000000    0.0000000000000000
     0.0000000000000000    2.5272760000000001    0.0000000000000000
     0.0000000000000000    0.0000000000000000   10.0000000000000000
 Pt 
   1
Cartesian
  0.0000000000000000  0.0000000000000000  0.0000000000000000 Pt
