# Basics
#structure "poscar:POSCAR"
ndtset 10
acell: 2.95  20.0 20.0 angstrom
acell+ 0.01 0.0  0.0  angstrom
getwfk -1
rprim  1 0 0  0 1 0  0 0 1

ntypat 1
znucl  3
natom 1
typat 1
xcart 0.0 0.0 0.0
#pp_dirpath "$ABI_HOME/nc-sr-05_pbe_standard_psp8/"
#pseudos "Li.psp8"
pp_dirpath "$ABI_HOME/JTH-LDA-atomicdata-1.1/ATOMICDATA/"
pseudos "Li.LDA_PW-JTH.xml"

nsym   1 # Number fo SYMmetry operations (1: no sym; only indentity)
nsppol 1 # Number of SPin POLarization

nstep  50 # SCF steps
ecut   20.0 # Maximal kinetic energy cut-off, in Hartree
toldfe 1.0d-6 # SCF convergence
occopt 7 # OCCupation OPTion (7: Gaussian)
tsmear 1000 K # Temperature of SMEARing

nband   8 # Number of BANDs
kptopt  3 # KPoinTs OPTion (3: rely on ngkpt, nshiftk and shiftk; do not consider any sym)
ngkpt   8 1 1 # K - PoinTs grid : Real space LATTice
nshiftk 1 # No shift
shiftk  0.0 0.0 0.0

# GS
nspinor 1 # Number of SPINORial components of the wavefunctions

# PAW
pawecutdg 60.0 # PAW - Energy CUToff for the Double Grid
pawprtvol 3

# Relaxation
#optcell 4
#chkdilatmx 1
#dilatmx 1.05
#ecutsm 0.5
#
#ionmov 2
#geoopt "bfgs"
#ntime 10
#tolmxf 5.0d-5
