ndtset 4
jdtset 1 2 3 4

paral_kgb 0
prtvol 10
prtgsr 0 # GSR file printing produces some unpredictable results

#DS1##############################################################################
getden_filepath1 "dfthub_DEN"

# Basics
acell  5.96 20.0 20.0 angstrom
rprim  1 0 0  0 1 0  0 0 1

ntypat 1
znucl  3
natom 1
typat 1
xcart 0.0 0.0 0.0
pp_dirpath "$ABI_HOME/JTH-LDA-atomicdata-1.1/ATOMICDATA/"
pseudos "Li.LDA_PW-JTH.xml"

nsppol 1 # Number of SPin POLarization
#spinat 0.0 0.0 1.0 

nsym   1 # Number fo SYMmetry operations (1: no sym; only indentity)
nstep  50 # SCF steps
ecut   20.0 # Maximal kinetic energy cut-off, in Hartree
tolvrs 1.0e-15 # SCF convergence
occopt 7 # OCCupation OPTion (7: Gaussian)
tsmear 1000 K # Temperature of SMEARing

nband   8 # Number of BANDs
kptopt  3 # KPoinTs OPTion (3: rely on ngkpt, nshiftk and shiftk; do not consider any sym)
ngkpt   8 1 1 # K - PoinTs grid : Real space LATTice
nshiftk 1 # No shift
shiftk  0.0 0.0 0.0

# GS
nspinor     1 # Number of SPINORial components of the wavefunctions
gw_icutcoul 6
symchi      0
symsigma    0 # Default in v9 is 1 but I don't think UCPRA supports it (MG)

# PAW
pawecutdg 60.0 # PAW - Energy CUToff for the Double Grid
pawprtvol 3
#pawoptosc 1 # Choose the Shishkin Kresse way to compute oscillator matrix. In general Arnaud Alouani is much better, but too time consuming for this simple test.

# DFTU: 1st dataset and definition of correlated angular momentum
usepawu    1 # DFT+U is used just for printing usefull quantities.
dmatpuopt  1 # choose expression of the density matrix
lpawu      0
jpawu      0.0 eV
upawu      0.0 eV

# Activate calculation of U and J
ucrpa 1 # The screening will use the Wannier weights to suppress transitions.

##----------------------------------------------------------------------------#
# DO not change parameters below this line unless you know what you do.
#----------------------------------------------------------------------------
#
#==================================================================================
############ FIRST DATASET: Read Wfc, produce KSS file and Wannier file
#==================================================================================
tolvrs1 1.0d-13

#==================================================================================
############ SECOND DATASET: Read Wfc, produce KSS file and Wannier file
#==================================================================================
getden2         1
# == Compute empty bands precisely
iscf2          -2
tolwfr2   1.0d-18     # Will stop when this tolerance is achieved

# == Compute Projected Wannier functions
plowan_compute2 1 # Activate the computation of Wannier functions
plowan_bandi    2 # First band for Wannier functions
plowan_bandf    2 # Last band for Wannier functions
plowan_natom    1 # Number of atoms
plowan_iatom    1 # Index of atoms
plowan_nbl      1 # Number of orbitals on each atoms
plowan_lcalc    0 # Index of the orbitals (2 -> d)
plowan_projcalc 2 # Projector for the orbitals (see pseudo-potential file)

#==================================================================================
############ THIRD DATASET:  Calculation of the screening (epsilon^-1 matrix)
#==================================================================================
optdriver3    3   # Screening calculation
gwcalctyp3    2
getwfk3       -1  # Obtain WFK file from previous dataset
ecuteps3      5.0 # Cut-off energy of the planewave set to represent the dielectric matrix. It is important to adjust this parameter.

# -- Frequencies for dielectric matrix
nfreqre3 1
freqremax3 10 eV
freqremin3 0 eV
nfreqim3   0

# -- Ucrpa: screening
ucrpa_bands3  2  2  # In principle, it is useless for ucrpa=2. It is however still necessary for technical reasons even if is redundant with dmftbandi and dmftbandf.

plowan_compute3 10 # Read Wannier functions
awtr 0

# -- Parallelism
gwpara3 1

#==================================================================================
############ FOURTH DATASET: Calculation of the effective interaction (optdriver=4 and gwcalctyp=2 and ucrpa=1)
#==================================================================================
optdriver4  4      # Self-Energy calculation
gwcalctyp4  2      # activate HF or ucrpa
getwfk4     2      # Obtain WFK file from dataset 2
getscr4     3      # Obtain SCR file from previous dataset
ecutsigx4   30.0   # Dimension of the G sum in Sigma_x. It would be better to keep the default ecut value.
plowan_compute4 10 # Read Wannier functions
# irdscr3     1
# irdwfk3     1


# -- Frequencies for
nfreqsp4    1
freqspmax4 10 eV
freqspmin4  0 eV
nkptgw4      0     # number of k-point where to calculate the GW correction: all BZ
mqgrid4 300        # Reduced but fine at least for SrVO3
mqgriddg4 300      # Reduced but fine at least for SrVO3

# -- Parallelism
gwpara4 2        # necessary for dataset 3 DO NOT CHANGE IT if nsppol=2
