Pt1
1.0
  -1.9715751809424396   -1.9715751809424393   -0.0000000000000004
  -1.9715751809424393    0.0000000000000000   -1.9715751809424396
  -0.0000000000000003   -1.9715751809424393   -1.9715751809424396
Pt
1
direct
   0.0000000000000000    0.0000000000000000    0.0000000000000000 Pt
